results_rootrelaxation/bin012_060_021.srr.sol
solution status: optimal solution found
objective value:                     1.30769230769231
_var692_                            0.153846153846155 	(obj:0)
_var725_                             0.23076923076923 	(obj:0)
_var727_                            0.384615384615385 	(obj:0)
_var729_                            0.153846153846155 	(obj:0)
_var733_                            0.230769230769231 	(obj:0)
_var737_                            0.384615384615384 	(obj:0)
_var742_                            0.230769230769231 	(obj:0)
_var744_                            0.230769230769231 	(obj:0)
_var745_                            0.153846153846154 	(obj:0)
_var750_                           0.0769230769230769 	(obj:0)
_var751_                            0.307692307692308 	(obj:0)
_var754_                           0.0769230769230766 	(obj:0)
_var759_                            0.230769230769231 	(obj:0)
_var767_                            0.615384615384615 	(obj:0)
_var768_                            0.230769230769231 	(obj:0)
_var773_                             0.23076923076923 	(obj:0)
_var776_                            0.153846153846155 	(obj:0)
_var779_                            0.384615384615385 	(obj:0)
_var783_                            0.384615384615385 	(obj:1)
_var787_                            0.307692307692308 	(obj:0)
_var788_                            0.384615384615385 	(obj:0)
_var792_                            0.230769230769231 	(obj:1)
_var794_                             0.23076923076923 	(obj:0)
_var798_                            0.307692307692307 	(obj:0)
_var806_                           0.0769230769230771 	(obj:0)
_var812_                            0.384615384615384 	(obj:0)
_var813_                            0.076923076923076 	(obj:0)
_var819_                           0.0769230769230756 	(obj:1)
_var822_                            0.230769230769231 	(obj:0)
_var829_                            0.153846153846153 	(obj:0)
_var830_                            0.230769230769232 	(obj:1)
_var832_                           0.0769230769230777 	(obj:0)
_var836_                            0.153846153846154 	(obj:0)
_var837_                             0.23076923076923 	(obj:0)
_var839_                           0.0769230769230779 	(obj:0)
_var840_                            0.615384615384615 	(obj:0)
_var845_                            0.153846153846155 	(obj:0)
_var854_                            0.230769230769231 	(obj:0)
_var858_                           0.0769230769230767 	(obj:0)
_var860_                            0.230769230769231 	(obj:1)
_var861_                            0.153846153846153 	(obj:0)
_var862_                            0.153846153846155 	(obj:0)
_var864_                           0.0769230769230767 	(obj:1)
_var867_                           0.0769230769230766 	(obj:0)
_var870_                           0.0769230769230766 	(obj:0)
_var871_                            0.230769230769231 	(obj:0)
_var872_                           0.0769230769230766 	(obj:1)
_var873_                            0.153846153846155 	(obj:0)
_var874_                           0.0769230769230763 	(obj:0)
_var875_                           0.0769230769230753 	(obj:0)
_var878_                            0.307692307692309 	(obj:0)
_var880_                           0.0769230769230777 	(obj:0)
_var883_                           0.0769230769230771 	(obj:0)
