results_rootrelaxation/bin012_060_021.srr.log
SCIP version 8.0.3.5 [precision: 8 byte] [memory: block] [mode: optimized] [LP solver: Soplex 6.0.1.3] [GitHash: 438792519e]
Copyright (c) 2002-2023 Zuse Institute Berlin (ZIB)

External libraries: 
  Readline 8.1         GNU library for command line editing (gnu.org/s/readline)
  Soplex 6.0.1.3       Linear Programming Solver developed at Zuse Institute Berlin (soplex.zib.de) [GitHash: 713be0fe]
  CppAD 20180000.0     Algorithmic Differentiation of C++ algorithms developed by B. Bell (github.com/coin-or/CppAD)
  ZLIB 1.2.11          General purpose compression library by J. Gailly and M. Adler (zlib.net)
  bliss 0.77           Computing Graph Automorphism Groups by T. Junttila and P. Kaski (www.tcs.hut.fi/Software/bliss/)

user parameter file <scip.set> not found - using default parameters

srr/relaxation = TRUE

read problem <instances/bin012_060_021.srr>
============

Original problem: 
original problem has 0 variables (0 bin, 0 int, 0 impl, 0 cont) and 77 constraints

presolving:
presolving (1 rounds: 1 fast, 1 medium, 1 exhaustive):
 0 deleted vars, 0 deleted constraints, 0 added constraints, 0 tightened bounds, 0 added holes, 0 changed sides, 0 changed coefficients
 0 implications, 0 cliques
presolved problem has 0 variables (0 bin, 0 int, 0 impl, 0 cont) and 77 constraints
     77 constraints of type <linear>
Presolving Time: 0.00

 time | node  | left  |LP iter|LP it/n|mem/heur|mdpt |vars |cons |rows |cuts |sepa|confs|strbr|  dualbound   | primalbound  |  gap   | compl. 
  0.0s|     1 |     0 |     1 |     - |   710k |   0 |   1 |  77 |  77 |   0 |  0 |   0 |   0 |      --      |      --      |    Inf | unknown
r 0.0s|     1 |     0 |   764 |     - |simplero|   0 | 645 |  77 |  77 |   0 |  0 |   0 |   0 |      --      | 2.012816e+01 |    Inf | unknown
r 0.0s|     1 |     0 |   791 |     - |simplero|   0 | 656 |  77 |  77 |   0 |  0 |   0 |   0 |      --      | 1.830868e+01 |    Inf | unknown
r 0.0s|     1 |     0 |   836 |     - |simplero|   0 | 667 |  77 |  77 |   0 |  0 |   0 |   0 |      --      | 1.692590e+01 |    Inf | unknown
r 0.1s|     1 |     0 |   894 |     - |simplero|   0 | 678 |  77 |  77 |   0 |  0 |   0 |   0 |      --      | 1.557222e+01 |    Inf | unknown
r 0.1s|     1 |     0 |   930 |     - |simplero|   0 | 689 |  77 |  77 |   0 |  0 |   0 |   0 |      --      | 1.388664e+01 |    Inf | unknown
r 0.1s|     1 |     0 |   941 |     - |simplero|   0 | 689 |  77 |  77 |   0 |  0 |   0 |   0 |      --      | 1.377480e+01 |    Inf | unknown
r 0.1s|     1 |     0 |   942 |     - |simplero|   0 | 689 |  77 |  77 |   0 |  0 |   0 |   0 |      --      | 1.377404e+01 |    Inf | unknown
r 0.1s|     1 |     0 |   993 |     - |simplero|   0 | 700 |  77 |  77 |   0 |  0 |   0 |   0 |      --      | 1.141263e+01 |    Inf | unknown
r 0.1s|     1 |     0 |  1010 |     - |simplero|   0 | 700 |  77 |  77 |   0 |  0 |   0 |   0 |      --      | 1.129986e+01 |    Inf | unknown
r 0.1s|     1 |     0 |  1017 |     - |simplero|   0 | 700 |  77 |  77 |   0 |  0 |   0 |   0 |      --      | 1.129738e+01 |    Inf | unknown
r 0.1s|     1 |     0 |  1044 |     - |simplero|   0 | 711 |  77 |  77 |   0 |  0 |   0 |   0 |      --      | 1.068294e+01 |    Inf | unknown
r 0.1s|     1 |     0 |  1081 |     - |simplero|   0 | 711 |  77 |  77 |   0 |  0 |   0 |   0 |      --      | 1.006366e+01 |    Inf | unknown
r 0.1s|     1 |     0 |  1089 |     - |simplero|   0 | 711 |  77 |  77 |   0 |  0 |   0 |   0 |      --      | 1.001425e+01 |    Inf | unknown
r 0.1s|     1 |     0 |  1120 |     - |simplero|   0 | 722 |  77 |  77 |   0 |  0 |   0 |   0 |      --      | 9.211633e+00 |    Inf | unknown
 time | node  | left  |LP iter|LP it/n|mem/heur|mdpt |vars |cons |rows |cuts |sepa|confs|strbr|  dualbound   | primalbound  |  gap   | compl. 
r 0.1s|     1 |     0 |  1139 |     - |simplero|   0 | 722 |  77 |  77 |   0 |  0 |   0 |   0 |      --      | 8.874289e+00 |    Inf | unknown
r 0.1s|     1 |     0 |  1143 |     - |simplero|   0 | 722 |  77 |  77 |   0 |  0 |   0 |   0 |      --      | 8.872308e+00 |    Inf | unknown
r 0.1s|     1 |     0 |  1186 |     - |simplero|   0 | 733 |  77 |  77 |   0 |  0 |   0 |   0 |      --      | 7.717337e+00 |    Inf | unknown
r 0.1s|     1 |     0 |  1206 |     - |simplero|   0 | 733 |  77 |  77 |   0 |  0 |   0 |   0 |      --      | 7.530031e+00 |    Inf | unknown
r 0.1s|     1 |     0 |  1207 |     - |simplero|   0 | 733 |  77 |  77 |   0 |  0 |   0 |   0 |      --      | 7.529990e+00 |    Inf | unknown
r 0.1s|     1 |     0 |  1250 |     - |simplero|   0 | 744 |  77 |  77 |   0 |  0 |   0 |   0 |      --      | 6.766678e+00 |    Inf | unknown
r 0.1s|     1 |     0 |  1263 |     - |simplero|   0 | 744 |  77 |  77 |   0 |  0 |   0 |   0 |      --      | 6.681918e+00 |    Inf | unknown
r 0.1s|     1 |     0 |  1309 |     - |simplero|   0 | 755 |  77 |  77 |   0 |  0 |   0 |   0 |      --      | 5.601483e+00 |    Inf | unknown
r 0.1s|     1 |     0 |  1321 |     - |simplero|   0 | 755 |  77 |  77 |   0 |  0 |   0 |   0 |      --      | 5.516528e+00 |    Inf | unknown
r 0.1s|     1 |     0 |  1364 |     - |simplero|   0 | 766 |  77 |  77 |   0 |  0 |   0 |   0 |      --      | 4.671765e+00 |    Inf | unknown
r 0.1s|     1 |     0 |  1373 |     - |simplero|   0 | 766 |  77 |  77 |   0 |  0 |   0 |   0 |      --      | 4.583516e+00 |    Inf | unknown
r 0.1s|     1 |     0 |  1377 |     - |simplero|   0 | 766 |  77 |  77 |   0 |  0 |   0 |   0 |      --      | 4.579895e+00 |    Inf | unknown
r 0.1s|     1 |     0 |  1420 |     - |simplero|   0 | 777 |  77 |  77 |   0 |  0 |   0 |   0 |      --      | 3.954022e+00 |    Inf | unknown
r 0.1s|     1 |     0 |  1421 |     - |simplero|   0 | 777 |  77 |  77 |   0 |  0 |   0 |   0 |      --      | 3.945241e+00 |    Inf | unknown
r 0.1s|     1 |     0 |  1458 |     - |simplero|   0 | 788 |  77 |  77 |   0 |  0 |   0 |   0 |      --      | 3.340863e+00 |    Inf | unknown
 time | node  | left  |LP iter|LP it/n|mem/heur|mdpt |vars |cons |rows |cuts |sepa|confs|strbr|  dualbound   | primalbound  |  gap   | compl. 
r 0.1s|     1 |     0 |  1470 |     - |simplero|   0 | 788 |  77 |  77 |   0 |  0 |   0 |   0 |      --      | 3.312525e+00 |    Inf | unknown
r 0.1s|     1 |     0 |  1483 |     - |simplero|   0 | 788 |  77 |  77 |   0 |  0 |   0 |   0 |      --      | 3.301457e+00 |    Inf | unknown
r 0.1s|     1 |     0 |  1513 |     - |simplero|   0 | 799 |  77 |  77 |   0 |  0 |   0 |   0 |      --      | 2.739578e+00 |    Inf | unknown
r 0.1s|     1 |     0 |  1518 |     - |simplero|   0 | 799 |  77 |  77 |   0 |  0 |   0 |   0 |      --      | 2.728650e+00 |    Inf | unknown
r 0.1s|     1 |     0 |  1544 |     - |simplero|   0 | 810 |  77 |  77 |   0 |  0 |   0 |   0 |      --      | 2.393241e+00 |    Inf | unknown
  0.1s|     1 |     0 |  1552 |     - |  3818k |   0 | 810 |  77 |  77 |   0 |  0 |   0 |   0 |      --      | 2.393241e+00 |    Inf | unknown
r 0.1s|     1 |     0 |  1552 |     - |simplero|   0 | 810 |  77 |  77 |   0 |  0 |   0 |   0 |      --      | 2.387478e+00 |    Inf | unknown
r 0.1s|     1 |     0 |  1553 |     - |simplero|   0 | 810 |  77 |  77 |   0 |  0 |   0 |   0 |      --      | 2.387463e+00 |    Inf | unknown
r 0.1s|     1 |     0 |  1595 |     - |simplero|   0 | 821 |  77 |  77 |   0 |  0 |   0 |   0 |      --      | 2.290314e+00 |    Inf | unknown
r 0.1s|     1 |     0 |  1611 |     - |simplero|   0 | 821 |  77 |  77 |   0 |  0 |   0 |   0 |      --      | 2.255071e+00 |    Inf | unknown
r 0.1s|     1 |     0 |  1617 |     - |simplero|   0 | 821 |  77 |  77 |   0 |  0 |   0 |   0 |      --      | 2.247431e+00 |    Inf | unknown
r 0.1s|     1 |     0 |  1639 |     - |simplero|   0 | 832 |  77 |  77 |   0 |  0 |   0 |   0 |      --      | 2.151948e+00 |    Inf | unknown
r 0.1s|     1 |     0 |  1651 |     - |simplero|   0 | 832 |  77 |  77 |   0 |  0 |   0 |   0 |      --      | 2.098455e+00 |    Inf | unknown
r 0.1s|     1 |     0 |  1661 |     - |simplero|   0 | 832 |  77 |  77 |   0 |  0 |   0 |   0 |      --      | 2.068134e+00 |    Inf | unknown
r 0.1s|     1 |     0 |  1705 |     - |simplero|   0 | 842 |  77 |  77 |   0 |  0 |   0 |   0 |      --      | 1.738837e+00 |    Inf | unknown
 time | node  | left  |LP iter|LP it/n|mem/heur|mdpt |vars |cons |rows |cuts |sepa|confs|strbr|  dualbound   | primalbound  |  gap   | compl. 
r 0.1s|     1 |     0 |  1737 |     - |simplero|   0 | 842 |  77 |  77 |   0 |  0 |   0 |   0 |      --      | 1.669332e+00 |    Inf | unknown
r 0.1s|     1 |     0 |  1738 |     - |simplero|   0 | 842 |  77 |  77 |   0 |  0 |   0 |   0 |      --      | 1.669047e+00 |    Inf | unknown
r 0.1s|     1 |     0 |  1767 |     - |simplero|   0 | 852 |  77 |  77 |   0 |  0 |   0 |   0 |      --      | 1.580183e+00 |    Inf | unknown
r 0.1s|     1 |     0 |  1780 |     - |simplero|   0 | 852 |  77 |  77 |   0 |  0 |   0 |   0 |      --      | 1.546123e+00 |    Inf | unknown
r 0.1s|     1 |     0 |  1802 |     - |simplero|   0 | 862 |  77 |  77 |   0 |  0 |   0 |   0 |      --      | 1.428571e+00 |    Inf | unknown
r 0.1s|     1 |     0 |  1812 |     - |simplero|   0 | 868 |  77 |  77 |   0 |  0 |   0 |   0 |      --      | 1.391304e+00 |    Inf | unknown
r 0.1s|     1 |     0 |  1831 |     - |simplero|   0 | 875 |  77 |  77 |   0 |  0 |   0 |   0 |      --      | 1.346870e+00 |    Inf | unknown
r 0.1s|     1 |     0 |  1848 |     - |simplero|   0 | 881 |  77 |  77 |   0 |  0 |   0 |   0 |      --      | 1.311325e+00 |    Inf | unknown
r 0.1s|     1 |     0 |  1853 |     - |simplero|   0 | 885 |  77 |  77 |   0 |  0 |   0 |   0 |      --      | 1.307692e+00 |    Inf | unknown
  0.1s|     1 |     0 |  1853 |     - |  4594k |   0 | 885 |  77 |  77 |   0 |  0 |   0 |   0 | 1.307692e+00 | 1.307692e+00 |   0.00%| unknown
  0.1s|     1 |     0 |  1853 |     - |  4594k |   0 | 885 |  77 |  77 |   0 |  0 |   0 |   0 | 1.307692e+00 | 1.307692e+00 |   0.00%| unknown

SCIP Status        : problem is solved [optimal solution found]
Solving Time (sec) : 0.11
Solving Nodes      : 1
Primal Bound       : +1.30769230769231e+00 (52 solutions)
Dual Bound         : +1.30769230769231e+00
Gap                : 0.00 %

written transformed problem to file <results_rootrelaxation/bin012_060_021.srr.lp>
written transformed problem to file <results_rootrelaxation/bin012_060_021.srr.cip>


SCIP version 8.0.3.5 [precision: 8 byte] [memory: block] [mode: optimized] [LP solver: Soplex 6.0.1.3] [GitHash: 438792519e]
Copyright (c) 2002-2023 Zuse Institute Berlin (ZIB)

External libraries: 
  Readline 8.1         GNU library for command line editing (gnu.org/s/readline)
  Soplex 6.0.1.3       Linear Programming Solver developed at Zuse Institute Berlin (soplex.zib.de) [GitHash: 713be0fe]
  CppAD 20180000.0     Algorithmic Differentiation of C++ algorithms developed by B. Bell (github.com/coin-or/CppAD)
  ZLIB 1.2.11          General purpose compression library by J. Gailly and M. Adler (zlib.net)
  bliss 0.77           Computing Graph Automorphism Groups by T. Junttila and P. Kaski (www.tcs.hut.fi/Software/bliss/)

user parameter file <scip.set> not found - using default parameters

srr/relaxation = TRUE

read problem <instances/bin012_060_021.srr>
============

Original problem: 
original problem has 0 variables (0 bin, 0 int, 0 impl, 0 cont) and 77 constraints

presolving:
presolving (1 rounds: 1 fast, 1 medium, 1 exhaustive):
 0 deleted vars, 0 deleted constraints, 0 added constraints, 0 tightened bounds, 0 added holes, 0 changed sides, 0 changed coefficients
 0 implications, 0 cliques
presolved problem has 0 variables (0 bin, 0 int, 0 impl, 0 cont) and 77 constraints
     77 constraints of type <linear>
Presolving Time: 0.00

 time | node  | left  |LP iter|LP it/n|mem/heur|mdpt |vars |cons |rows |cuts |sepa|confs|strbr|  dualbound   | primalbound  |  gap   | compl. 
  0.0s|     1 |     0 |     1 |     - |   710k |   0 |   1 |  77 |  77 |   0 |  0 |   0 |   0 |      --      |      --      |    Inf | unknown
r 0.1s|     1 |     0 |   764 |     - |simplero|   0 | 645 |  77 |  77 |   0 |  0 |   0 |   0 |      --      | 2.012816e+01 |    Inf | unknown
r 0.1s|     1 |     0 |   791 |     - |simplero|   0 | 656 |  77 |  77 |   0 |  0 |   0 |   0 |      --      | 1.830868e+01 |    Inf | unknown
r 0.1s|     1 |     0 |   836 |     - |simplero|   0 | 667 |  77 |  77 |   0 |  0 |   0 |   0 |      --      | 1.692590e+01 |    Inf | unknown
r 0.1s|     1 |     0 |   894 |     - |simplero|   0 | 678 |  77 |  77 |   0 |  0 |   0 |   0 |      --      | 1.557222e+01 |    Inf | unknown
r 0.1s|     1 |     0 |   930 |     - |simplero|   0 | 689 |  77 |  77 |   0 |  0 |   0 |   0 |      --      | 1.388664e+01 |    Inf | unknown
r 0.1s|     1 |     0 |   941 |     - |simplero|   0 | 689 |  77 |  77 |   0 |  0 |   0 |   0 |      --      | 1.377480e+01 |    Inf | unknown
r 0.1s|     1 |     0 |   942 |     - |simplero|   0 | 689 |  77 |  77 |   0 |  0 |   0 |   0 |      --      | 1.377404e+01 |    Inf | unknown
r 0.1s|     1 |     0 |   993 |     - |simplero|   0 | 700 |  77 |  77 |   0 |  0 |   0 |   0 |      --      | 1.141263e+01 |    Inf | unknown
r 0.1s|     1 |     0 |  1010 |     - |simplero|   0 | 700 |  77 |  77 |   0 |  0 |   0 |   0 |      --      | 1.129986e+01 |    Inf | unknown
r 0.1s|     1 |     0 |  1017 |     - |simplero|   0 | 700 |  77 |  77 |   0 |  0 |   0 |   0 |      --      | 1.129738e+01 |    Inf | unknown
r 0.1s|     1 |     0 |  1044 |     - |simplero|   0 | 711 |  77 |  77 |   0 |  0 |   0 |   0 |      --      | 1.068294e+01 |    Inf | unknown
r 0.1s|     1 |     0 |  1081 |     - |simplero|   0 | 711 |  77 |  77 |   0 |  0 |   0 |   0 |      --      | 1.006366e+01 |    Inf | unknown
r 0.1s|     1 |     0 |  1089 |     - |simplero|   0 | 711 |  77 |  77 |   0 |  0 |   0 |   0 |      --      | 1.001425e+01 |    Inf | unknown
r 0.1s|     1 |     0 |  1120 |     - |simplero|   0 | 722 |  77 |  77 |   0 |  0 |   0 |   0 |      --      | 9.211633e+00 |    Inf | unknown
 time | node  | left  |LP iter|LP it/n|mem/heur|mdpt |vars |cons |rows |cuts |sepa|confs|strbr|  dualbound   | primalbound  |  gap   | compl. 
r 0.1s|     1 |     0 |  1139 |     - |simplero|   0 | 722 |  77 |  77 |   0 |  0 |   0 |   0 |      --      | 8.874289e+00 |    Inf | unknown
r 0.1s|     1 |     0 |  1143 |     - |simplero|   0 | 722 |  77 |  77 |   0 |  0 |   0 |   0 |      --      | 8.872308e+00 |    Inf | unknown
r 0.1s|     1 |     0 |  1186 |     - |simplero|   0 | 733 |  77 |  77 |   0 |  0 |   0 |   0 |      --      | 7.717337e+00 |    Inf | unknown
r 0.1s|     1 |     0 |  1206 |     - |simplero|   0 | 733 |  77 |  77 |   0 |  0 |   0 |   0 |      --      | 7.530031e+00 |    Inf | unknown
r 0.1s|     1 |     0 |  1207 |     - |simplero|   0 | 733 |  77 |  77 |   0 |  0 |   0 |   0 |      --      | 7.529990e+00 |    Inf | unknown
r 0.1s|     1 |     0 |  1250 |     - |simplero|   0 | 744 |  77 |  77 |   0 |  0 |   0 |   0 |      --      | 6.766678e+00 |    Inf | unknown
r 0.1s|     1 |     0 |  1263 |     - |simplero|   0 | 744 |  77 |  77 |   0 |  0 |   0 |   0 |      --      | 6.681918e+00 |    Inf | unknown
r 0.1s|     1 |     0 |  1309 |     - |simplero|   0 | 755 |  77 |  77 |   0 |  0 |   0 |   0 |      --      | 5.601483e+00 |    Inf | unknown
r 0.1s|     1 |     0 |  1321 |     - |simplero|   0 | 755 |  77 |  77 |   0 |  0 |   0 |   0 |      --      | 5.516528e+00 |    Inf | unknown
r 0.1s|     1 |     0 |  1364 |     - |simplero|   0 | 766 |  77 |  77 |   0 |  0 |   0 |   0 |      --      | 4.671765e+00 |    Inf | unknown
r 0.1s|     1 |     0 |  1373 |     - |simplero|   0 | 766 |  77 |  77 |   0 |  0 |   0 |   0 |      --      | 4.583516e+00 |    Inf | unknown
r 0.1s|     1 |     0 |  1377 |     - |simplero|   0 | 766 |  77 |  77 |   0 |  0 |   0 |   0 |      --      | 4.579895e+00 |    Inf | unknown
r 0.1s|     1 |     0 |  1420 |     - |simplero|   0 | 777 |  77 |  77 |   0 |  0 |   0 |   0 |      --      | 3.954022e+00 |    Inf | unknown
r 0.1s|     1 |     0 |  1421 |     - |simplero|   0 | 777 |  77 |  77 |   0 |  0 |   0 |   0 |      --      | 3.945241e+00 |    Inf | unknown
r 0.1s|     1 |     0 |  1458 |     - |simplero|   0 | 788 |  77 |  77 |   0 |  0 |   0 |   0 |      --      | 3.340863e+00 |    Inf | unknown
 time | node  | left  |LP iter|LP it/n|mem/heur|mdpt |vars |cons |rows |cuts |sepa|confs|strbr|  dualbound   | primalbound  |  gap   | compl. 
r 0.1s|     1 |     0 |  1470 |     - |simplero|   0 | 788 |  77 |  77 |   0 |  0 |   0 |   0 |      --      | 3.312525e+00 |    Inf | unknown
r 0.1s|     1 |     0 |  1483 |     - |simplero|   0 | 788 |  77 |  77 |   0 |  0 |   0 |   0 |      --      | 3.301457e+00 |    Inf | unknown
r 0.1s|     1 |     0 |  1513 |     - |simplero|   0 | 799 |  77 |  77 |   0 |  0 |   0 |   0 |      --      | 2.739578e+00 |    Inf | unknown
r 0.1s|     1 |     0 |  1518 |     - |simplero|   0 | 799 |  77 |  77 |   0 |  0 |   0 |   0 |      --      | 2.728650e+00 |    Inf | unknown
r 0.1s|     1 |     0 |  1544 |     - |simplero|   0 | 810 |  77 |  77 |   0 |  0 |   0 |   0 |      --      | 2.393241e+00 |    Inf | unknown
  0.1s|     1 |     0 |  1552 |     - |  3818k |   0 | 810 |  77 |  77 |   0 |  0 |   0 |   0 |      --      | 2.393241e+00 |    Inf | unknown
r 0.1s|     1 |     0 |  1552 |     - |simplero|   0 | 810 |  77 |  77 |   0 |  0 |   0 |   0 |      --      | 2.387478e+00 |    Inf | unknown
r 0.1s|     1 |     0 |  1553 |     - |simplero|   0 | 810 |  77 |  77 |   0 |  0 |   0 |   0 |      --      | 2.387463e+00 |    Inf | unknown
r 0.1s|     1 |     0 |  1595 |     - |simplero|   0 | 821 |  77 |  77 |   0 |  0 |   0 |   0 |      --      | 2.290314e+00 |    Inf | unknown
r 0.1s|     1 |     0 |  1611 |     - |simplero|   0 | 821 |  77 |  77 |   0 |  0 |   0 |   0 |      --      | 2.255071e+00 |    Inf | unknown
r 0.1s|     1 |     0 |  1617 |     - |simplero|   0 | 821 |  77 |  77 |   0 |  0 |   0 |   0 |      --      | 2.247431e+00 |    Inf | unknown
r 0.1s|     1 |     0 |  1639 |     - |simplero|   0 | 832 |  77 |  77 |   0 |  0 |   0 |   0 |      --      | 2.151948e+00 |    Inf | unknown
r 0.1s|     1 |     0 |  1651 |     - |simplero|   0 | 832 |  77 |  77 |   0 |  0 |   0 |   0 |      --      | 2.098455e+00 |    Inf | unknown
r 0.1s|     1 |     0 |  1661 |     - |simplero|   0 | 832 |  77 |  77 |   0 |  0 |   0 |   0 |      --      | 2.068134e+00 |    Inf | unknown
r 0.1s|     1 |     0 |  1705 |     - |simplero|   0 | 842 |  77 |  77 |   0 |  0 |   0 |   0 |      --      | 1.738837e+00 |    Inf | unknown
 time | node  | left  |LP iter|LP it/n|mem/heur|mdpt |vars |cons |rows |cuts |sepa|confs|strbr|  dualbound   | primalbound  |  gap   | compl. 
r 0.1s|     1 |     0 |  1737 |     - |simplero|   0 | 842 |  77 |  77 |   0 |  0 |   0 |   0 |      --      | 1.669332e+00 |    Inf | unknown
r 0.1s|     1 |     0 |  1738 |     - |simplero|   0 | 842 |  77 |  77 |   0 |  0 |   0 |   0 |      --      | 1.669047e+00 |    Inf | unknown
r 0.1s|     1 |     0 |  1767 |     - |simplero|   0 | 852 |  77 |  77 |   0 |  0 |   0 |   0 |      --      | 1.580183e+00 |    Inf | unknown
r 0.1s|     1 |     0 |  1780 |     - |simplero|   0 | 852 |  77 |  77 |   0 |  0 |   0 |   0 |      --      | 1.546123e+00 |    Inf | unknown
r 0.1s|     1 |     0 |  1802 |     - |simplero|   0 | 862 |  77 |  77 |   0 |  0 |   0 |   0 |      --      | 1.428571e+00 |    Inf | unknown
r 0.1s|     1 |     0 |  1812 |     - |simplero|   0 | 868 |  77 |  77 |   0 |  0 |   0 |   0 |      --      | 1.391304e+00 |    Inf | unknown
r 0.1s|     1 |     0 |  1831 |     - |simplero|   0 | 875 |  77 |  77 |   0 |  0 |   0 |   0 |      --      | 1.346870e+00 |    Inf | unknown
r 0.1s|     1 |     0 |  1848 |     - |simplero|   0 | 881 |  77 |  77 |   0 |  0 |   0 |   0 |      --      | 1.311325e+00 |    Inf | unknown
r 0.1s|     1 |     0 |  1853 |     - |simplero|   0 | 885 |  77 |  77 |   0 |  0 |   0 |   0 |      --      | 1.307692e+00 |    Inf | unknown
  0.1s|     1 |     0 |  1853 |     - |  4594k |   0 | 885 |  77 |  77 |   0 |  0 |   0 |   0 | 1.307692e+00 | 1.307692e+00 |   0.00%| unknown
  0.1s|     1 |     0 |  1853 |     - |  4594k |   0 | 885 |  77 |  77 |   0 |  0 |   0 |   0 | 1.307692e+00 | 1.307692e+00 |   0.00%| unknown

SCIP Status        : problem is solved [optimal solution found]
Solving Time (sec) : 0.11
Solving Nodes      : 1
Primal Bound       : +1.30769230769231e+00 (52 solutions)
Dual Bound         : +1.30769230769231e+00
Gap                : 0.00 %

written transformed problem to file <results_rootrelaxation/bin012_060_021.srr.lp>
written transformed problem to file <results_rootrelaxation/bin012_060_021.srr.cip>

written solution information to file <results_rootrelaxation/bin012_060_021.srr.sol>



